Solver command line: ['C:\\Program Files\\gurobi1102\\win64\\bin\\gurobi.bat']

Set parameter Username
Academic license - for non-commercial use only - expires 2025-07-11
Read LP format model from file C:\Users\PAULWI~1\AppData\Local\Temp\tmp5pqrwqhq.pyomo.lp
Reading time = 0.13 seconds
objective: 17978 rows, 16799 columns, 40472 nonzeros
Set parameter TimeLimit to value 1000
Set parameter MIPGap to value 0.08
Gurobi Optimizer version 11.0.2 build v11.0.2rc0 (win64 - Windows 10.0 (19045.2))

CPU model: Intel(R) Xeon(R) CPU E5-1607 v2 @ 3.00GHz, instruction set [SSE2|AVX]
Thread count: 4 physical cores, 4 logical processors, using up to 4 threads

Optimize a model with 17978 rows, 16799 columns and 40472 nonzeros
Model fingerprint: 0xcd760503
Model has 167 quadratic constraints
Variable types: 14448 continuous, 2351 integer (2016 binary)
Coefficient statistics:
  Matrix range     [6e-03, 1e+03]
  QMatrix range    [1e+00, 1e+00]
  Objective range  [4e+01, 3e+02]
  Bounds range     [1e+00, 3e+00]
  RHS range        [4e-04, 1e+04]
Presolve removed 16137 rows and 14285 columns
Presolve time: 0.13s
Presolved: 1841 rows, 2514 columns, 6863 nonzeros
Variable types: 2013 continuous, 501 integer (501 binary)
Found heuristic solution: objective -1175873.406

Root relaxation: objective -2.182759e+06, 1280 iterations, 0.02 seconds (0.01 work units)

    Nodes    |    Current Node    |     Objective Bounds      |     Work
 Expl Unexpl |  Obj  Depth IntInf | Incumbent    BestBd   Gap | It/Node Time

     0     0 -2182759.0    0   11 -1175873.4 -2182759.0  85.6%     -    0s
H    0     0                    -2171038.018 -2182759.0  0.54%     -    0s

Explored 1 nodes (1287 simplex iterations) in 0.22 seconds (0.09 work units)
Thread count was 4 (of 4 available processors)

Solution count 2: -2.17104e+06 -1.17587e+06 

Optimal solution found (tolerance 8.00e-02)
Best objective -2.171038017648e+06, best bound -2.182759022257e+06, gap 0.5399%

